NAME: ch150
COMMENT: ILS com limite de estagnacao = 10 - Fernanda V, Paula Laiz, Stephany | Tempo de execucao: 0.072013s
TYPE: TOUR
DIMENSION: 150
TOTAL_WEIGHT: 6565
TOUR_SECTION
1
98
103
82
95
107
5
100
143
97
146
26
75
18
142
85
65
132
137
50
55
58
141
83
56
90
46
92
54
138
134
109
51
20
25
110
81
29
86
135
70
108
102
114
99
19
2
37
6
28
9
42
120
47
139
40
53
12
24
118
127
69
36
61
11
148
130
17
66
60
140
117
57
39
41
101
116
43
67
38
23
32
131
77
122
14
80
133
15
78
21
150
115
44
64
112
136
145
72
49
147
144
129
27
31
123
74
13
106
91
119
68
128
71
45
4
104
22
125
149
62
3
113
10
94
88
121
79
59
16
111
105
33
126
52
93
124
35
96
89
8
7
84
30
63
48
73
76
34
87
EOF
